GLPSOL--GLPK LP/MIP Solver 5.0
Parameter(s) specified in the command line:
 --cpxlp --first inputs/new_no_tr/order/triang8_4_default_input.lp -o solutions/new_no_tr/triang8_4_default_input.lp
Reading problem data from 'inputs/new_no_tr/order/triang8_4_default_input.lp'...
inputs/new_no_tr/order/triang8_4_default_input.lp:6985: warning: lower bound of variable 'm_0_0' redefined
inputs/new_no_tr/order/triang8_4_default_input.lp:6985: warning: upper bound of variable 'm_0_0' redefined
6757 rows, 2629 columns, 19709 non-zeros
2629 integer variables, 2408 of which are binary
9577 lines were read
GLPK Integer Optimizer 5.0
6757 rows, 2629 columns, 19709 non-zeros
2629 integer variables, 2408 of which are binary
Preprocessing...
56 hidden packing inequaliti(es) were detected
143 hidden covering inequaliti(es) were detected
1148 constraint coefficient(s) were reduced
6169 rows, 2290 columns, 17675 non-zeros
2290 integer variables, 2253 of which are binary
Scaling...
 A: min|aij| =  1.000e+00  max|aij| =  9.900e+01  ratio =  9.900e+01
GM: min|aij| =  4.082e-01  max|aij| =  2.449e+00  ratio =  6.000e+00
EQ: min|aij| =  1.667e-01  max|aij| =  1.000e+00  ratio =  6.000e+00
2N: min|aij| =  1.250e-01  max|aij| =  1.562e+00  ratio =  1.250e+01
Constructing initial basis...
Size of triangular part is 5595
Solving LP relaxation...
GLPK Simplex Optimizer 5.0
6169 rows, 2290 columns, 17675 non-zeros
      0: obj =   2.280000000e+02 inf =   2.266e+02 (180)
Perturbing LP to avoid stalling [199]...
   2123: obj =   4.452916546e+02 inf =   4.100e-07 (0) 20
Removing LP perturbation [3845]...
*  3845: obj =   2.290752212e+02 inf =   1.194e-13 (0) 16
OPTIMAL LP SOLUTION FOUND
Integer optimization begins...
Long-step dual simplex will be used
+  3845: mip =     not found yet >=              -inf        (1; 0)
+ 17516: mip =     not found yet >=   2.300000000e+02        (12; 6)
+ 28772: mip =     not found yet >=   2.300000000e+02        (27; 10)
+ 42492: mip =     not found yet >=   2.300000000e+02        (29; 14)
+ 61157: mip =     not found yet >=   2.300000000e+02        (41; 22)
+ 73372: mip =     not found yet >=   2.300000000e+02        (49; 27)
+ 87304: mip =     not found yet >=   2.300000000e+02        (57; 34)
+100350: mip =     not found yet >=   2.300000000e+02        (67; 40)
+114584: mip =     not found yet >=   2.300000000e+02        (75; 45)
+128437: mip =     not found yet >=   2.300000000e+02        (86; 51)
Time used: 60.1 secs.  Memory used: 8.5 Mb.
+143222: mip =     not found yet >=   2.300000000e+02        (99; 57)
+156353: mip =     not found yet >=   2.300000000e+02        (108; 64)
+170411: mip =     not found yet >=   2.300000000e+02        (117; 70)
+183315: mip =     not found yet >=   2.300000000e+02        (125; 76)
+195119: mip =     not found yet >=   2.480000000e+02        (129; 80)
+207143: mip =     not found yet >=   2.480000000e+02        (139; 110)
+219068: mip =     not found yet >=   2.480000000e+02        (142; 139)
+231553: mip =     not found yet >=   2.480000000e+02        (144; 171)
+243682: mip =     not found yet >=   2.480000000e+02        (165; 189)
+255849: mip =     not found yet >=   2.480000000e+02        (167; 218)
+268029: mip =     not found yet >=   2.480000000e+02        (159; 257)
Time used: 120.6 secs.  Memory used: 10.0 Mb.
+280170: mip =     not found yet >=   2.480000000e+02        (153; 298)
+292059: mip =     not found yet >=   2.480000000e+02        (156; 331)
+304359: mip =     not found yet >=   2.480000000e+02        (156; 363)
+316180: mip =     not found yet >=   2.480000000e+02        (152; 392)
+328166: mip =     not found yet >=   2.480000000e+02        (152; 415)
+339901: mip =     not found yet >=   2.480000000e+02        (150; 441)
+351682: mip =     not found yet >=   2.480000000e+02        (154; 466)
+363315: mip =     not found yet >=   2.480000000e+02        (148; 497)
+374722: mip =     not found yet >=   2.480000000e+02        (150; 521)
+387228: mip =     not found yet >=   2.480000000e+02        (154; 548)
+398585: mip =     not found yet >=   2.480000000e+02        (160; 571)
+409630: mip =     not found yet >=   2.480000000e+02        (192; 579)
Time used: 182.1 secs.  Memory used: 11.7 Mb.
+420919: mip =     not found yet >=   2.490000000e+02        (200; 594)
+435381: mip =     not found yet >=   2.490000000e+02        (205; 603)
+449272: mip =     not found yet >=   2.490000000e+02        (212; 604)
+466255: mip =     not found yet >=   2.490000000e+02        (228; 608)
+481168: mip =     not found yet >=   2.490000000e+02        (249; 615)
+492603: mip =     not found yet >=   2.490000000e+02        (269; 617)
+509260: mip =     not found yet >=   2.490000000e+02        (276; 620)
+520515: mip =     not found yet >=   2.490000000e+02        (275; 632)
+532604: mip =     not found yet >=   2.490000000e+02        (285; 634)
+546212: mip =     not found yet >=   2.490000000e+02        (292; 642)
+557353: mip =     not found yet >=   2.490000000e+02        (300; 648)
Time used: 245.5 secs.  Memory used: 13.0 Mb.
+569728: mip =     not found yet >=   2.490000000e+02        (311; 650)
+582157: mip =     not found yet >=   2.490000000e+02        (339; 650)
+596263: mip =     not found yet >=   2.490000000e+02        (343; 657)
+608303: mip =     not found yet >=   2.490000000e+02        (352; 660)
+620354: mip =     not found yet >=   2.490000000e+02        (379; 660)
+635636: mip =     not found yet >=   2.490000000e+02        (382; 667)
+646528: mip =     not found yet >=   2.490000000e+02        (392; 668)
+657751: mip =     not found yet >=   2.490000000e+02        (397; 684)
+669011: mip =     not found yet >=   2.490000000e+02        (400; 702)
+683323: mip =     not found yet >=   2.490000000e+02        (396; 717)
Time used: 306.4 secs.  Memory used: 14.1 Mb.
+695144: mip =     not found yet >=   2.490000000e+02        (415; 727)
+711817: mip =     not found yet >=   2.490000000e+02        (425; 734)
+729460: mip =     not found yet >=   2.490000000e+02        (424; 751)
+740287: mip =     not found yet >=   2.490000000e+02        (419; 771)
+753360: mip =     not found yet >=   2.490000000e+02        (419; 785)
+764205: mip =     not found yet >=   2.490000000e+02        (419; 800)
+776751: mip =     not found yet >=   2.490000000e+02        (418; 806)
+790908: mip =     not found yet >=   2.490000000e+02        (418; 816)
+803890: mip =     not found yet >=   2.490000000e+02        (432; 816)
+816592: mip =     not found yet >=   2.490000000e+02        (432; 830)
+827791: mip =     not found yet >=   2.490000000e+02        (428; 846)
Time used: 366.4 secs.  Memory used: 15.0 Mb.
+844955: mip =     not found yet >=   2.490000000e+02        (429; 852)
+860176: mip =     not found yet >=   2.490000000e+02        (433; 863)
+872002: mip =     not found yet >=   2.490000000e+02        (432; 883)
+884767: mip =     not found yet >=   2.500000000e+02        (434; 893)
+899626: mip =     not found yet >=   2.500000000e+02        (451; 895)
+915802: mip =     not found yet >=   2.500000000e+02        (449; 901)
+929697: mip =     not found yet >=   2.500000000e+02        (450; 904)
+940329: mip =     not found yet >=   2.500000000e+02        (458; 904)
+951539: mip =     not found yet >=   2.500000000e+02        (462; 905)
+964677: mip =     not found yet >=   2.500000000e+02        (462; 907)
Time used: 430.5 secs.  Memory used: 15.7 Mb.
+977750: mip =     not found yet >=   2.500000000e+02        (463; 910)
+995140: mip =     not found yet >=   2.510000000e+02        (462; 912)
+1005805: mip =     not found yet >=   2.510000000e+02        (461; 922)
+1016210: mip =     not found yet >=   2.510000000e+02        (462; 922)
+1029188: mip =     not found yet >=   2.510000000e+02        (470; 925)
+1047414: mip =     not found yet >=   2.510000000e+02        (481; 926)
+1062430: mip =     not found yet >=   2.510000000e+02        (503; 928)
+1074060: mip =     not found yet >=   2.510000000e+02        (523; 929)
+1089570: mip =     not found yet >=   2.510000000e+02        (535; 931)
Time used: 491.2 secs.  Memory used: 16.5 Mb.
+1104861: mip =     not found yet >=   2.510000000e+02        (545; 932)
+1119585: mip =     not found yet >=   2.520000000e+02        (563; 934)
+1145156: mip =     not found yet >=   2.520000000e+02        (577; 935)
+1160490: mip =     not found yet >=   2.520000000e+02        (596; 937)
+1172134: mip =     not found yet >=   2.520000000e+02        (609; 938)
+1194250: mip =     not found yet >=   2.520000000e+02        (617; 940)
+1208287: mip =     not found yet >=   2.520000000e+02        (653; 941)
+1222387: mip =     not found yet >=   2.530000000e+02        (669; 943)
Time used: 551.2 secs.  Memory used: 17.8 Mb.
+1234916: mip =     not found yet >=   2.540000000e+02        (682; 944)
+1247501: mip =     not found yet >=   2.540000000e+02        (686; 962)
+1260909: mip =     not found yet >=   2.540000000e+02        (690; 977)
+1273880: mip =     not found yet >=   2.540000000e+02        (709; 978)
+1289263: mip =     not found yet >=   2.540000000e+02        (726; 993)
+1301963: mip =     not found yet >=   2.540000000e+02        (736; 997)
+1314373: mip =     not found yet >=   2.540000000e+02        (744; 997)
+1327317: mip =     not found yet >=   2.540000000e+02        (753; 1012)
+1339675: mip =     not found yet >=   2.540000000e+02        (761; 1016)
+1354992: mip =     not found yet >=   2.540000000e+02        (786; 1032)
+1369599: mip =     not found yet >=   2.540000000e+02        (788; 1036)
Time used: 611.3 secs.  Memory used: 19.4 Mb.
+1385112: mip =     not found yet >=   2.540000000e+02        (829; 1040)
+1397626: mip =     not found yet >=   2.540000000e+02        (827; 1050)
+1410487: mip =     not found yet >=   2.540000000e+02        (847; 1059)
+1422902: mip =     not found yet >=   2.540000000e+02        (847; 1074)
+1436772: mip =     not found yet >=   2.540000000e+02        (864; 1075)
+1450735: mip =     not found yet >=   2.540000000e+02        (877; 1090)
+1461700: mip =     not found yet >=   2.540000000e+02        (884; 1106)
+1475613: mip =     not found yet >=   2.540000000e+02        (882; 1113)
+1487499: mip =     not found yet >=   2.540000000e+02        (890; 1119)
+1500711: mip =     not found yet >=   2.540000000e+02        (897; 1125)
+1513658: mip =     not found yet >=   2.540000000e+02        (898; 1134)
Time used: 671.4 secs.  Memory used: 20.6 Mb.
+1526375: mip =     not found yet >=   2.540000000e+02        (912; 1146)
+1538517: mip =     not found yet >=   2.540000000e+02        (917; 1161)
+1551112: mip =     not found yet >=   2.540000000e+02        (938; 1169)
+1561873: mip =     not found yet >=   2.540000000e+02        (945; 1172)
+1574831: mip =     not found yet >=   2.540000000e+02        (947; 1193)
+1587166: mip =     not found yet >=   2.540000000e+02        (963; 1208)
+1598248: mip =     not found yet >=   2.540000000e+02        (964; 1211)
+1611487: mip =     not found yet >=   2.540000000e+02        (966; 1227)
+1624079: mip =     not found yet >=   2.540000000e+02        (968; 1227)
+1636710: mip =     not found yet >=   2.540000000e+02        (978; 1238)
+1651158: mip =     not found yet >=   2.540000000e+02        (986; 1245)
Time used: 732.3 secs.  Memory used: 21.9 Mb.
+1663473: mip =     not found yet >=   2.540000000e+02        (996; 1253)
Warning: basis matrix is ill-conditioned (cond = 5.71e+13)
+1678210: mip =     not found yet >=   2.540000000e+02        (1002; 1261)
+1690453: mip =     not found yet >=   2.540000000e+02        (1011; 1267)
+1706397: mip =     not found yet >=   2.540000000e+02        (1030; 1271)
+1719522: mip =     not found yet >=   2.540000000e+02        (1046; 1272)
+1733834: mip =     not found yet >=   2.540000000e+02        (1041; 1297)
+1747496: mip =     not found yet >=   2.540000000e+02        (1052; 1301)
+1759215: mip =     not found yet >=   2.540000000e+02        (1055; 1320)
+1772545: mip =     not found yet >=   2.540000000e+02        (1070; 1325)
+1783709: mip =     not found yet >=   2.540000000e+02        (1070; 1329)
Time used: 792.8 secs.  Memory used: 23.1 Mb.
+1795002: mip =     not found yet >=   2.540000000e+02        (1075; 1343)
+1807225: mip =     not found yet >=   2.540000000e+02        (1081; 1347)
+1821589: mip =     not found yet >=   2.540000000e+02        (1097; 1350)
+1834991: mip =     not found yet >=   2.540000000e+02        (1116; 1356)
+1848989: mip =     not found yet >=   2.540000000e+02        (1137; 1356)
+1862275: mip =     not found yet >=   2.540000000e+02        (1144; 1359)
+1877050: mip =     not found yet >=   2.540000000e+02        (1163; 1375)
+1890431: mip =     not found yet >=   2.540000000e+02        (1170; 1384)
+1902992: mip =     not found yet >=   2.540000000e+02        (1190; 1399)
+1915420: mip =     not found yet >=   2.540000000e+02        (1195; 1416)
+1928033: mip =     not found yet >=   2.540000000e+02        (1215; 1423)
Time used: 852.9 secs.  Memory used: 24.6 Mb.
+1939888: mip =     not found yet >=   2.540000000e+02        (1233; 1425)
+1952079: mip =     not found yet >=   2.540000000e+02        (1240; 1435)
+1968677: mip =     not found yet >=   2.540000000e+02        (1256; 1439)
+1981382: mip =     not found yet >=   2.540000000e+02        (1270; 1452)
+1994972: mip =     not found yet >=   2.540000000e+02        (1270; 1457)
+2007137: mip =     not found yet >=   2.540000000e+02        (1291; 1462)
+2018387: mip =     not found yet >=   2.540000000e+02        (1305; 1467)
+2030072: mip =     not found yet >=   2.540000000e+02        (1310; 1473)
+2043475: mip =     not found yet >=   2.540000000e+02        (1311; 1474)
+2057523: mip =     not found yet >=   2.540000000e+02        (1321; 1479)
+2069150: mip =     not found yet >=   2.540000000e+02        (1328; 1485)
Time used: 913.0 secs.  Memory used: 25.7 Mb.
+2081194: mip =     not found yet >=   2.540000000e+02        (1332; 1487)
+2093587: mip =     not found yet >=   2.540000000e+02        (1339; 1490)
+2105706: mip =     not found yet >=   2.540000000e+02        (1347; 1499)
+2117293: mip =     not found yet >=   2.540000000e+02        (1360; 1503)
+2129045: mip =     not found yet >=   2.540000000e+02        (1361; 1506)
+2139984: mip =     not found yet >=   2.540000000e+02        (1368; 1508)
+2153940: mip =     not found yet >=   2.540000000e+02        (1370; 1510)
+2165476: mip =     not found yet >=   2.540000000e+02        (1373; 1513)
+2176802: mip =     not found yet >=   2.540000000e+02        (1383; 1519)
+2188071: mip =     not found yet >=   2.540000000e+02        (1387; 1525)
+2200673: mip =     not found yet >=   2.540000000e+02        (1393; 1531)
Time used: 975.4 secs.  Memory used: 26.4 Mb.
+2213535: mip =     not found yet >=   2.540000000e+02        (1401; 1552)
+2227541: mip =     not found yet >=   2.540000000e+02        (1408; 1563)
+2240270: mip =     not found yet >=   2.540000000e+02        (1411; 1570)
+2251575: mip =     not found yet >=   2.540000000e+02        (1411; 1592)
+2262887: mip =     not found yet >=   2.540000000e+02        (1415; 1600)
+2274573: mip =     not found yet >=   2.540000000e+02        (1415; 1603)
+2289766: mip =     not found yet >=   2.540000000e+02        (1421; 1620)
+2303300: mip =     not found yet >=   2.540000000e+02        (1418; 1634)
+2315577: mip =     not found yet >=   2.540000000e+02        (1421; 1651)
+2327981: mip =     not found yet >=   2.540000000e+02        (1428; 1658)
+2339587: mip =     not found yet >=   2.540000000e+02        (1425; 1664)
Time used: 1035.7 secs.  Memory used: 27.3 Mb.
+2351493: mip =     not found yet >=   2.540000000e+02        (1422; 1668)
+2362067: mip =     not found yet >=   2.540000000e+02        (1426; 1671)
+2373537: mip =     not found yet >=   2.540000000e+02        (1430; 1686)
+2385690: mip =     not found yet >=   2.540000000e+02        (1471; 1690)
+2396646: mip =     not found yet >=   2.540000000e+02        (1477; 1699)
+2406861: mip =     not found yet >=   2.540000000e+02        (1478; 1703)
+2420632: mip =     not found yet >=   2.540000000e+02        (1483; 1711)
+2432451: mip =     not found yet >=   2.540000000e+02        (1478; 1725)
+2450000: mip =     not found yet >=   2.540000000e+02        (1481; 1739)
+2465410: mip =     not found yet >=   2.540000000e+02        (1496; 1747)
Time used: 1097.5 secs.  Memory used: 28.3 Mb.
+2481410: mip =     not found yet >=   2.540000000e+02        (1509; 1765)
+2492545: mip =     not found yet >=   2.540000000e+02        (1512; 1765)
+2504055: mip =     not found yet >=   2.540000000e+02        (1512; 1773)
+2515368: mip =     not found yet >=   2.540000000e+02        (1516; 1773)
+2530454: mip =     not found yet >=   2.540000000e+02        (1534; 1781)
+2542339: mip =     not found yet >=   2.540000000e+02        (1532; 1787)
+2553570: mip =     not found yet >=   2.540000000e+02        (1538; 1811)
+2564973: mip =     not found yet >=   2.540000000e+02        (1537; 1817)
+2575921: mip =     not found yet >=   2.540000000e+02        (1542; 1830)
+2588041: mip =     not found yet >=   2.540000000e+02        (1555; 1836)
+2599579: mip =     not found yet >=   2.540000000e+02        (1571; 1844)
Time used: 1158.2 secs.  Memory used: 29.3 Mb.
+2612269: mip =     not found yet >=   2.540000000e+02        (1576; 1854)
+2623900: mip =     not found yet >=   2.540000000e+02        (1586; 1866)
+2636258: mip =     not found yet >=   2.540000000e+02        (1597; 1875)
+2649870: mip =     not found yet >=   2.540000000e+02        (1608; 1882)
+2661451: mip =     not found yet >=   2.540000000e+02        (1611; 1905)
+2674299: mip =     not found yet >=   2.540000000e+02        (1617; 1910)
+2690402: mip =     not found yet >=   2.540000000e+02        (1630; 1925)
+2701229: mip =     not found yet >=   2.540000000e+02        (1641; 1940)
+2712652: mip =     not found yet >=   2.540000000e+02        (1645; 1963)
+2725153: mip =     not found yet >=   2.540000000e+02        (1647; 1964)
+2740587: mip =     not found yet >=   2.540000000e+02        (1653; 1975)
Time used: 1219.8 secs.  Memory used: 30.7 Mb.
+2754514: mip =     not found yet >=   2.540000000e+02        (1673; 1984)
+2766421: mip =     not found yet >=   2.540000000e+02        (1687; 1990)
+2777331: mip =     not found yet >=   2.540000000e+02        (1679; 2001)
+2788841: mip =     not found yet >=   2.540000000e+02        (1680; 2007)
+2802532: mip =     not found yet >=   2.540000000e+02        (1690; 2009)
+2813897: mip =     not found yet >=   2.540000000e+02        (1704; 2021)
+2826741: mip =     not found yet >=   2.540000000e+02        (1706; 2021)
+2839224: mip =     not found yet >=   2.540000000e+02        (1714; 2028)
+2852400: mip =     not found yet >=   2.540000000e+02        (1721; 2032)
+2863721: mip =     not found yet >=   2.540000000e+02        (1728; 2046)
+2875488: mip =     not found yet >=   2.540000000e+02        (1727; 2056)
Time used: 1280.3 secs.  Memory used: 31.7 Mb.
+2887124: mip =     not found yet >=   2.540000000e+02        (1726; 2078)
+2900230: mip =     not found yet >=   2.540000000e+02        (1749; 2080)
+2915190: mip =     not found yet >=   2.540000000e+02        (1751; 2082)
+2928948: mip =     not found yet >=   2.540000000e+02        (1750; 2083)
+2942167: mip =     not found yet >=   2.540000000e+02        (1750; 2086)
Warning: numerical instability (dual simplex, phase II)
+2957282: mip =     not found yet >=   2.540000000e+02        (1754; 2099)
+2968862: mip =     not found yet >=   2.540000000e+02        (1762; 2112)
+2980937: mip =     not found yet >=   2.540000000e+02        (1774; 2122)
+2993613: mip =     not found yet >=   2.540000000e+02        (1781; 2135)
+3004940: mip =     not found yet >=   2.540000000e+02        (1776; 2149)
+3019163: mip =     not found yet >=   2.540000000e+02        (1793; 2173)
Time used: 1340.3 secs.  Memory used: 32.6 Mb.
+3032675: mip =     not found yet >=   2.540000000e+02        (1798; 2176)
+3043830: mip =     not found yet >=   2.540000000e+02        (1798; 2181)
+3055923: mip =     not found yet >=   2.540000000e+02        (1808; 2196)
+3067944: mip =     not found yet >=   2.540000000e+02        (1818; 2204)
+3078631: mip =     not found yet >=   2.540000000e+02        (1820; 2212)
+3092738: mip =     not found yet >=   2.540000000e+02        (1822; 2221)
+3107607: mip =     not found yet >=   2.540000000e+02        (1823; 2232)
+3121596: mip =     not found yet >=   2.540000000e+02        (1830; 2240)
+3135176: mip =     not found yet >=   2.540000000e+02        (1827; 2251)
+3146073: mip =     not found yet >=   2.540000000e+02        (1829; 2269)
Time used: 1401.9 secs.  Memory used: 33.5 Mb.
+3157637: mip =     not found yet >=   2.540000000e+02        (1845; 2287)
+3170868: mip =     not found yet >=   2.540000000e+02        (1842; 2293)
+3183452: mip =     not found yet >=   2.540000000e+02        (1848; 2298)
+3194588: mip =     not found yet >=   2.540000000e+02        (1853; 2308)
+3205165: mip =     not found yet >=   2.540000000e+02        (1861; 2311)
+3225120: mip =     not found yet >=   2.540000000e+02        (1867; 2318)
+3239737: mip =     not found yet >=   2.540000000e+02        (1873; 2324)
+3251778: mip =     not found yet >=   2.540000000e+02        (1893; 2332)
+3267828: mip =     not found yet >=   2.540000000e+02        (1906; 2356)
+3281748: mip =     not found yet >=   2.540000000e+02        (1928; 2362)
Time used: 1462.9 secs.  Memory used: 34.6 Mb.
+3297546: mip =     not found yet >=   2.540000000e+02        (1927; 2369)
+3310288: mip =     not found yet >=   2.540000000e+02        (1932; 2389)
+3322329: mip =     not found yet >=   2.540000000e+02        (1936; 2406)
+3333289: mip =     not found yet >=   2.540000000e+02        (1936; 2414)
+3347102: mip =     not found yet >=   2.540000000e+02        (1942; 2433)
+3358618: mip =     not found yet >=   2.540000000e+02        (1943; 2440)
+3371728: mip =     not found yet >=   2.540000000e+02        (1945; 2461)
+3382467: mip =     not found yet >=   2.540000000e+02        (1944; 2470)
+3394524: mip =     not found yet >=   2.540000000e+02        (1949; 2483)
+3408155: mip =     not found yet >=   2.540000000e+02        (1959; 2490)
+3419306: mip =     not found yet >=   2.540000000e+02        (1974; 2496)
Warning: numerical instability (dual simplex, phase II)
Time used: 1526.2 secs.  Memory used: 35.7 Mb.
+3431176: mip =     not found yet >=   2.540000000e+02        (1975; 2503)
+3447000: mip =     not found yet >=   2.540000000e+02        (1977; 2525)
+3458509: mip =     not found yet >=   2.540000000e+02        (1982; 2526)
+3469212: mip =     not found yet >=   2.540000000e+02        (1983; 2534)
+3482517: mip =     not found yet >=   2.540000000e+02        (1988; 2555)
+3493727: mip =     not found yet >=   2.540000000e+02        (1989; 2560)
+3509003: mip =     not found yet >=   2.540000000e+02        (1987; 2565)
+3519850: mip =     not found yet >=   2.540000000e+02        (1986; 2570)
+3532639: mip =     not found yet >=   2.540000000e+02        (1987; 2574)
+3550645: mip =     not found yet >=   2.540000000e+02        (1992; 2594)
Time used: 1586.2 secs.  Memory used: 36.2 Mb.
+3565131: mip =     not found yet >=   2.540000000e+02        (2007; 2601)
+3575375: mip =     not found yet >=   2.540000000e+02        (2006; 2609)
+3588190: mip =     not found yet >=   2.540000000e+02        (2006; 2618)
+3599151: mip =     not found yet >=   2.540000000e+02        (2019; 2631)
+3611318: mip =     not found yet >=   2.540000000e+02        (2023; 2642)
+3626655: mip =     not found yet >=   2.540000000e+02        (2033; 2643)
+3638457: mip =     not found yet >=   2.540000000e+02        (2047; 2658)
+3650819: mip =     not found yet >=   2.540000000e+02        (2060; 2667)
+3662809: mip =     not found yet >=   2.540000000e+02        (2086; 2676)
+3674815: mip =     not found yet >=   2.540000000e+02        (2094; 2685)
+3686957: mip =     not found yet >=   2.540000000e+02        (2103; 2687)
Time used: 1646.5 secs.  Memory used: 37.6 Mb.
+3698062: mip =     not found yet >=   2.540000000e+02        (2104; 2692)
+3711401: mip =     not found yet >=   2.540000000e+02        (2111; 2699)
+3724673: mip =     not found yet >=   2.540000000e+02        (2116; 2707)
+3735508: mip =     not found yet >=   2.540000000e+02        (2113; 2718)
+3749569: mip =     not found yet >=   2.540000000e+02        (2123; 2720)
+3764042: mip =     not found yet >=   2.540000000e+02        (2129; 2740)
+3780349: mip =     not found yet >=   2.540000000e+02        (2139; 2743)
+3791509: mip =     not found yet >=   2.540000000e+02        (2146; 2752)
+3806404: mip =     not found yet >=   2.540000000e+02        (2142; 2765)
+3817651: mip =     not found yet >=   2.540000000e+02        (2146; 2772)
+3829122: mip =     not found yet >=   2.540000000e+02        (2153; 2780)
Time used: 1707.5 secs.  Memory used: 38.6 Mb.
+3839432: mip =     not found yet >=   2.540000000e+02        (2160; 2787)
+3850495: mip =     not found yet >=   2.540000000e+02        (2169; 2798)
+3861322: mip =     not found yet >=   2.540000000e+02        (2173; 2800)
+3882008: mip =     not found yet >=   2.540000000e+02        (2184; 2812)
+3893547: mip =     not found yet >=   2.540000000e+02        (2202; 2821)
+3904386: mip =     not found yet >=   2.540000000e+02        (2205; 2827)
+3915375: mip =     not found yet >=   2.540000000e+02        (2206; 2830)
+3926711: mip =     not found yet >=   2.540000000e+02        (2220; 2846)
+3938570: mip =     not found yet >=   2.540000000e+02        (2217; 2858)
+3950824: mip =     not found yet >=   2.540000000e+02        (2216; 2861)
Time used: 1767.7 secs.  Memory used: 39.4 Mb.
+3966020: mip =     not found yet >=   2.540000000e+02        (2226; 2876)
+3977751: mip =     not found yet >=   2.540000000e+02        (2223; 2893)
+3988610: mip =     not found yet >=   2.540000000e+02        (2226; 2898)
+3999131: mip =     not found yet >=   2.540000000e+02        (2226; 2911)
+4012436: mip =     not found yet >=   2.540000000e+02        (2226; 2931)
